NAME 
ROWS
 N  OBJ
 G  R0      
 G  R1      
 G  R2      
 G  R3      
 G  R4      
 G  R5      
 G  R6      
 G  R7      
 G  R8      
 G  R9      
 G  R10     
 G  R11     
 G  R12     
 G  R13     
 G  R14     
 G  R15     
 G  R16     
 G  R17     
 G  R18     
 G  R19     
 G  R20     
 G  R21     
 G  R22     
 G  R23     
 G  R24     
 G  R25     
 G  R26     
 G  R27     
 G  R28     
 G  R29     
 G  R30     
 G  R31     
 G  R32     
 G  R33     
 G  R34     
 G  R35     
 G  R36     
 G  R37     
 G  R38     
 G  R39     
 G  R40     
 G  R41     
 G  R42     
 G  R43     
 G  R44     
 G  R45     
 G  R46     
 G  R47     
 G  R48     
 G  R49     
 G  R50     
 G  R51     
 G  R52     
 G  R53     
COLUMNS
    x0        OBJ       1
    x0        R0        1
    x0        R13       1
    x0        R14       1
    x0        R16       1
    x0        R17       1
    x0        R22       1
    x0        R23       1
    x0        R25       1
    x0        R26       1
    x0        R31       1
    x0        R32       1
    x0        R34       1
    x0        R35       1
    x0        R37       1
    x0        R38       1
    x0        R39       1
    x0        R42       1
    x0        R46       1
    x0        R47       1
    x0        R48       1
    x0        R51       1
    x1        OBJ       1
    x1        R1        1
    x1        R12       1
    x1        R14       1
    x1        R15       1
    x1        R17       1
    x1        R21       1
    x1        R23       1
    x1        R24       1
    x1        R26       1
    x1        R30       1
    x1        R32       1
    x1        R33       1
    x1        R35       1
    x1        R36       1
    x1        R38       1
    x1        R40       1
    x1        R43       1
    x1        R45       1
    x1        R47       1
    x1        R49       1
    x1        R52       1
    x2        OBJ       1
    x2        R2        1
    x2        R12       1
    x2        R13       1
    x2        R15       1
    x2        R16       1
    x2        R21       1
    x2        R22       1
    x2        R24       1
    x2        R25       1
    x2        R30       1
    x2        R31       1
    x2        R33       1
    x2        R34       1
    x2        R36       1
    x2        R37       1
    x2        R41       1
    x2        R44       1
    x2        R45       1
    x2        R46       1
    x2        R50       1
    x2        R53       1
    x3        OBJ       1
    x3        R3        1
    x3        R10       1
    x3        R11       1
    x3        R16       1
    x3        R17       1
    x3        R19       1
    x3        R20       1
    x3        R25       1
    x3        R26       1
    x3        R28       1
    x3        R29       1
    x3        R34       1
    x3        R35       1
    x3        R36       1
    x3        R40       1
    x3        R41       1
    x3        R42       1
    x3        R45       1
    x3        R49       1
    x3        R50       1
    x3        R51       1
    x4        OBJ       1
    x4        R4        1
    x4        R9        1
    x4        R11       1
    x4        R15       1
    x4        R17       1
    x4        R18       1
    x4        R20       1
    x4        R24       1
    x4        R26       1
    x4        R27       1
    x4        R29       1
    x4        R33       1
    x4        R35       1
    x4        R37       1
    x4        R39       1
    x4        R41       1
    x4        R43       1
    x4        R46       1
    x4        R48       1
    x4        R50       1
    x4        R52       1
    x5        OBJ       1
    x5        R5        1
    x5        R9        1
    x5        R10       1
    x5        R15       1
    x5        R16       1
    x5        R18       1
    x5        R19       1
    x5        R24       1
    x5        R25       1
    x5        R27       1
    x5        R28       1
    x5        R33       1
    x5        R34       1
    x5        R38       1
    x5        R39       1
    x5        R40       1
    x5        R44       1
    x5        R47       1
    x5        R48       1
    x5        R49       1
    x5        R53       1
    x6        OBJ       1
    x6        R6        1
    x6        R10       1
    x6        R11       1
    x6        R13       1
    x6        R14       1
    x6        R19       1
    x6        R20       1
    x6        R22       1
    x6        R23       1
    x6        R28       1
    x6        R29       1
    x6        R31       1
    x6        R32       1
    x6        R36       1
    x6        R39       1
    x6        R43       1
    x6        R44       1
    x6        R45       1
    x6        R48       1
    x6        R52       1
    x6        R53       1
    x7        OBJ       1
    x7        R7        1
    x7        R9        1
    x7        R11       1
    x7        R12       1
    x7        R14       1
    x7        R18       1
    x7        R20       1
    x7        R21       1
    x7        R23       1
    x7        R27       1
    x7        R29       1
    x7        R30       1
    x7        R32       1
    x7        R37       1
    x7        R40       1
    x7        R42       1
    x7        R44       1
    x7        R46       1
    x7        R49       1
    x7        R51       1
    x7        R53       1
    x8        OBJ       1
    x8        R8        1
    x8        R9        1
    x8        R10       1
    x8        R12       1
    x8        R13       1
    x8        R18       1
    x8        R19       1
    x8        R21       1
    x8        R22       1
    x8        R27       1
    x8        R28       1
    x8        R30       1
    x8        R31       1
    x8        R38       1
    x8        R41       1
    x8        R42       1
    x8        R43       1
    x8        R47       1
    x8        R50       1
    x8        R51       1
    x8        R52       1
    x9        OBJ       1
    x9        R4        1
    x9        R5        1
    x9        R7        1
    x9        R8        1
    x9        R9        1
    x9        R22       1
    x9        R23       1
    x9        R25       1
    x9        R26       1
    x9        R28       1
    x9        R29       1
    x9        R30       1
    x9        R33       1
    x9        R40       1
    x9        R41       1
    x9        R43       1
    x9        R44       1
    x9        R46       1
    x9        R47       1
    x9        R48       1
    x9        R51       1
    x10       OBJ       1
    x10       R3        1
    x10       R5        1
    x10       R6        1
    x10       R8        1
    x10       R10       1
    x10       R21       1
    x10       R23       1
    x10       R24       1
    x10       R26       1
    x10       R27       1
    x10       R29       1
    x10       R31       1
    x10       R34       1
    x10       R39       1
    x10       R41       1
    x10       R42       1
    x10       R44       1
    x10       R45       1
    x10       R47       1
    x10       R49       1
    x10       R52       1
    x11       OBJ       1
    x11       R3        1
    x11       R4        1
    x11       R6        1
    x11       R7        1
    x11       R11       1
    x11       R21       1
    x11       R22       1
    x11       R24       1
    x11       R25       1
    x11       R27       1
    x11       R28       1
    x11       R32       1
    x11       R35       1
    x11       R39       1
    x11       R40       1
    x11       R42       1
    x11       R43       1
    x11       R45       1
    x11       R46       1
    x11       R50       1
    x11       R53       1
    x12       OBJ       1
    x12       R1        1
    x12       R2        1
    x12       R7        1
    x12       R8        1
    x12       R12       1
    x12       R19       1
    x12       R20       1
    x12       R25       1
    x12       R26       1
    x12       R27       1
    x12       R31       1
    x12       R32       1
    x12       R33       1
    x12       R37       1
    x12       R38       1
    x12       R43       1
    x12       R44       1
    x12       R45       1
    x12       R49       1
    x12       R50       1
    x12       R51       1
    x13       OBJ       1
    x13       R0        1
    x13       R2        1
    x13       R6        1
    x13       R8        1
    x13       R13       1
    x13       R18       1
    x13       R20       1
    x13       R24       1
    x13       R26       1
    x13       R28       1
    x13       R30       1
    x13       R32       1
    x13       R34       1
    x13       R36       1
    x13       R38       1
    x13       R42       1
    x13       R44       1
    x13       R46       1
    x13       R48       1
    x13       R50       1
    x13       R52       1
    x14       OBJ       1
    x14       R0        1
    x14       R1        1
    x14       R6        1
    x14       R7        1
    x14       R14       1
    x14       R18       1
    x14       R19       1
    x14       R24       1
    x14       R25       1
    x14       R29       1
    x14       R30       1
    x14       R31       1
    x14       R35       1
    x14       R36       1
    x14       R37       1
    x14       R42       1
    x14       R43       1
    x14       R47       1
    x14       R48       1
    x14       R49       1
    x14       R53       1
    x15       OBJ       1
    x15       R1        1
    x15       R2        1
    x15       R4        1
    x15       R5        1
    x15       R15       1
    x15       R19       1
    x15       R20       1
    x15       R22       1
    x15       R23       1
    x15       R27       1
    x15       R30       1
    x15       R34       1
    x15       R35       1
    x15       R37       1
    x15       R38       1
    x15       R40       1
    x15       R41       1
    x15       R45       1
    x15       R48       1
    x15       R52       1
    x15       R53       1
    x16       OBJ       1
    x16       R0        1
    x16       R2        1
    x16       R3        1
    x16       R5        1
    x16       R16       1
    x16       R18       1
    x16       R20       1
    x16       R21       1
    x16       R23       1
    x16       R28       1
    x16       R31       1
    x16       R33       1
    x16       R35       1
    x16       R36       1
    x16       R38       1
    x16       R39       1
    x16       R41       1
    x16       R46       1
    x16       R49       1
    x16       R51       1
    x16       R53       1
    x17       OBJ       1
    x17       R0        1
    x17       R1        1
    x17       R3        1
    x17       R4        1
    x17       R17       1
    x17       R18       1
    x17       R19       1
    x17       R21       1
    x17       R22       1
    x17       R29       1
    x17       R32       1
    x17       R33       1
    x17       R34       1
    x17       R36       1
    x17       R37       1
    x17       R39       1
    x17       R40       1
    x17       R47       1
    x17       R50       1
    x17       R51       1
    x17       R52       1
    x18       OBJ       1
    x18       R4        1
    x18       R5        1
    x18       R7        1
    x18       R8        1
    x18       R13       1
    x18       R14       1
    x18       R16       1
    x18       R17       1
    x18       R18       1
    x18       R28       1
    x18       R29       1
    x18       R30       1
    x18       R33       1
    x18       R37       1
    x18       R38       1
    x18       R39       1
    x18       R42       1
    x18       R49       1
    x18       R50       1
    x18       R52       1
    x18       R53       1
    x19       OBJ       1
    x19       R3        1
    x19       R5        1
    x19       R6        1
    x19       R8        1
    x19       R12       1
    x19       R14       1
    x19       R15       1
    x19       R17       1
    x19       R19       1
    x19       R27       1
    x19       R29       1
    x19       R31       1
    x19       R34       1
    x19       R36       1
    x19       R38       1
    x19       R40       1
    x19       R43       1
    x19       R48       1
    x19       R50       1
    x19       R51       1
    x19       R53       1
    x20       OBJ       1
    x20       R3        1
    x20       R4        1
    x20       R6        1
    x20       R7        1
    x20       R12       1
    x20       R13       1
    x20       R15       1
    x20       R16       1
    x20       R20       1
    x20       R27       1
    x20       R28       1
    x20       R32       1
    x20       R35       1
    x20       R36       1
    x20       R37       1
    x20       R41       1
    x20       R44       1
    x20       R48       1
    x20       R49       1
    x20       R51       1
    x20       R52       1
    x21       OBJ       1
    x21       R1        1
    x21       R2        1
    x21       R7        1
    x21       R8        1
    x21       R10       1
    x21       R11       1
    x21       R16       1
    x21       R17       1
    x21       R21       1
    x21       R27       1
    x21       R31       1
    x21       R32       1
    x21       R33       1
    x21       R36       1
    x21       R40       1
    x21       R41       1
    x21       R42       1
    x21       R46       1
    x21       R47       1
    x21       R52       1
    x21       R53       1
    x22       OBJ       1
    x22       R0        1
    x22       R2        1
    x22       R6        1
    x22       R8        1
    x22       R9        1
    x22       R11       1
    x22       R15       1
    x22       R17       1
    x22       R22       1
    x22       R28       1
    x22       R30       1
    x22       R32       1
    x22       R34       1
    x22       R37       1
    x22       R39       1
    x22       R41       1
    x22       R43       1
    x22       R45       1
    x22       R47       1
    x22       R51       1
    x22       R53       1
    x23       OBJ       1
    x23       R0        1
    x23       R1        1
    x23       R6        1
    x23       R7        1
    x23       R9        1
    x23       R10       1
    x23       R15       1
    x23       R16       1
    x23       R23       1
    x23       R29       1
    x23       R30       1
    x23       R31       1
    x23       R35       1
    x23       R38       1
    x23       R39       1
    x23       R40       1
    x23       R44       1
    x23       R45       1
    x23       R46       1
    x23       R51       1
    x23       R52       1
    x24       OBJ       1
    x24       R1        1
    x24       R2        1
    x24       R4        1
    x24       R5        1
    x24       R10       1
    x24       R11       1
    x24       R13       1
    x24       R14       1
    x24       R24       1
    x24       R27       1
    x24       R30       1
    x24       R34       1
    x24       R35       1
    x24       R36       1
    x24       R39       1
    x24       R43       1
    x24       R44       1
    x24       R46       1
    x24       R47       1
    x24       R49       1
    x24       R50       1
    x25       OBJ       1
    x25       R0        1
    x25       R2        1
    x25       R3        1
    x25       R5        1
    x25       R9        1
    x25       R11       1
    x25       R12       1
    x25       R14       1
    x25       R25       1
    x25       R28       1
    x25       R31       1
    x25       R33       1
    x25       R35       1
    x25       R37       1
    x25       R40       1
    x25       R42       1
    x25       R44       1
    x25       R45       1
    x25       R47       1
    x25       R48       1
    x25       R50       1
    x26       OBJ       1
    x26       R0        1
    x26       R1        1
    x26       R3        1
    x26       R4        1
    x26       R9        1
    x26       R10       1
    x26       R12       1
    x26       R13       1
    x26       R26       1
    x26       R29       1
    x26       R32       1
    x26       R33       1
    x26       R34       1
    x26       R38       1
    x26       R41       1
    x26       R42       1
    x26       R43       1
    x26       R45       1
    x26       R46       1
    x26       R48       1
    x26       R49       1
    x27       OBJ       1
    x27       R4        1
    x27       R5        1
    x27       R7        1
    x27       R8        1
    x27       R10       1
    x27       R11       1
    x27       R12       1
    x27       R15       1
    x27       R19       1
    x27       R20       1
    x27       R21       1
    x27       R24       1
    x27       R27       1
    x27       R40       1
    x27       R41       1
    x27       R43       1
    x27       R44       1
    x27       R49       1
    x27       R50       1
    x27       R52       1
    x27       R53       1
    x28       OBJ       1
    x28       R3        1
    x28       R5        1
    x28       R6        1
    x28       R8        1
    x28       R9        1
    x28       R11       1
    x28       R13       1
    x28       R16       1
    x28       R18       1
    x28       R20       1
    x28       R22       1
    x28       R25       1
    x28       R28       1
    x28       R39       1
    x28       R41       1
    x28       R42       1
    x28       R44       1
    x28       R48       1
    x28       R50       1
    x28       R51       1
    x28       R53       1
    x29       OBJ       1
    x29       R3        1
    x29       R4        1
    x29       R6        1
    x29       R7        1
    x29       R9        1
    x29       R10       1
    x29       R14       1
    x29       R17       1
    x29       R18       1
    x29       R19       1
    x29       R23       1
    x29       R26       1
    x29       R29       1
    x29       R39       1
    x29       R40       1
    x29       R42       1
    x29       R43       1
    x29       R48       1
    x29       R49       1
    x29       R51       1
    x29       R52       1
    x30       OBJ       1
    x30       R1        1
    x30       R2        1
    x30       R7        1
    x30       R8        1
    x30       R9        1
    x30       R13       1
    x30       R14       1
    x30       R15       1
    x30       R18       1
    x30       R22       1
    x30       R23       1
    x30       R24       1
    x30       R30       1
    x30       R37       1
    x30       R38       1
    x30       R43       1
    x30       R44       1
    x30       R46       1
    x30       R47       1
    x30       R52       1
    x30       R53       1
    x31       OBJ       1
    x31       R0        1
    x31       R2        1
    x31       R6        1
    x31       R8        1
    x31       R10       1
    x31       R12       1
    x31       R14       1
    x31       R16       1
    x31       R19       1
    x31       R21       1
    x31       R23       1
    x31       R25       1
    x31       R31       1
    x31       R36       1
    x31       R38       1
    x31       R42       1
    x31       R44       1
    x31       R45       1
    x31       R47       1
    x31       R51       1
    x31       R53       1
    x32       OBJ       1
    x32       R0        1
    x32       R1        1
    x32       R6        1
    x32       R7        1
    x32       R11       1
    x32       R12       1
    x32       R13       1
    x32       R17       1
    x32       R20       1
    x32       R21       1
    x32       R22       1
    x32       R26       1
    x32       R32       1
    x32       R36       1
    x32       R37       1
    x32       R42       1
    x32       R43       1
    x32       R45       1
    x32       R46       1
    x32       R51       1
    x32       R52       1
    x33       OBJ       1
    x33       R1        1
    x33       R2        1
    x33       R4        1
    x33       R5        1
    x33       R9        1
    x33       R12       1
    x33       R16       1
    x33       R17       1
    x33       R18       1
    x33       R21       1
    x33       R25       1
    x33       R26       1
    x33       R33       1
    x33       R37       1
    x33       R38       1
    x33       R40       1
    x33       R41       1
    x33       R46       1
    x33       R47       1
    x33       R49       1
    x33       R50       1
    x34       OBJ       1
    x34       R0        1
    x34       R2        1
    x34       R3        1
    x34       R5        1
    x34       R10       1
    x34       R13       1
    x34       R15       1
    x34       R17       1
    x34       R19       1
    x34       R22       1
    x34       R24       1
    x34       R26       1
    x34       R34       1
    x34       R36       1
    x34       R38       1
    x34       R39       1
    x34       R41       1
    x34       R45       1
    x34       R47       1
    x34       R48       1
    x34       R50       1
    x35       OBJ       1
    x35       R0        1
    x35       R1        1
    x35       R3        1
    x35       R4        1
    x35       R11       1
    x35       R14       1
    x35       R15       1
    x35       R16       1
    x35       R20       1
    x35       R23       1
    x35       R24       1
    x35       R25       1
    x35       R35       1
    x35       R36       1
    x35       R37       1
    x35       R39       1
    x35       R40       1
    x35       R45       1
    x35       R46       1
    x35       R48       1
    x35       R49       1
    x36       OBJ       1
    x36       R1        1
    x36       R2        1
    x36       R3        1
    x36       R6        1
    x36       R13       1
    x36       R14       1
    x36       R16       1
    x36       R17       1
    x36       R19       1
    x36       R20       1
    x36       R21       1
    x36       R24       1
    x36       R31       1
    x36       R32       1
    x36       R34       1
    x36       R35       1
    x36       R36       1
    x36       R49       1
    x36       R50       1
    x36       R52       1
    x36       R53       1
    x37       OBJ       1
    x37       R0        1
    x37       R2        1
    x37       R4        1
    x37       R7        1
    x37       R12       1
    x37       R14       1
    x37       R15       1
    x37       R17       1
    x37       R18       1
    x37       R20       1
    x37       R22       1
    x37       R25       1
    x37       R30       1
    x37       R32       1
    x37       R33       1
    x37       R35       1
    x37       R37       1
    x37       R48       1
    x37       R50       1
    x37       R51       1
    x37       R53       1
    x38       OBJ       1
    x38       R0        1
    x38       R1        1
    x38       R5        1
    x38       R8        1
    x38       R12       1
    x38       R13       1
    x38       R15       1
    x38       R16       1
    x38       R18       1
    x38       R19       1
    x38       R23       1
    x38       R26       1
    x38       R30       1
    x38       R31       1
    x38       R33       1
    x38       R34       1
    x38       R38       1
    x38       R48       1
    x38       R49       1
    x38       R51       1
    x38       R52       1
    x39       OBJ       1
    x39       R0        1
    x39       R4        1
    x39       R5        1
    x39       R6        1
    x39       R10       1
    x39       R11       1
    x39       R16       1
    x39       R17       1
    x39       R18       1
    x39       R22       1
    x39       R23       1
    x39       R24       1
    x39       R28       1
    x39       R29       1
    x39       R34       1
    x39       R35       1
    x39       R39       1
    x39       R46       1
    x39       R47       1
    x39       R52       1
    x39       R53       1
    x40       OBJ       1
    x40       R1        1
    x40       R3        1
    x40       R5        1
    x40       R7        1
    x40       R9        1
    x40       R11       1
    x40       R15       1
    x40       R17       1
    x40       R19       1
    x40       R21       1
    x40       R23       1
    x40       R25       1
    x40       R27       1
    x40       R29       1
    x40       R33       1
    x40       R35       1
    x40       R40       1
    x40       R45       1
    x40       R47       1
    x40       R51       1
    x40       R53       1
    x41       OBJ       1
    x41       R2        1
    x41       R3        1
    x41       R4        1
    x41       R8        1
    x41       R9        1
    x41       R10       1
    x41       R15       1
    x41       R16       1
    x41       R20       1
    x41       R21       1
    x41       R22       1
    x41       R26       1
    x41       R27       1
    x41       R28       1
    x41       R33       1
    x41       R34       1
    x41       R41       1
    x41       R45       1
    x41       R46       1
    x41       R51       1
    x41       R52       1
    x42       OBJ       1
    x42       R0        1
    x42       R3        1
    x42       R7        1
    x42       R8        1
    x42       R10       1
    x42       R11       1
    x42       R13       1
    x42       R14       1
    x42       R18       1
    x42       R21       1
    x42       R25       1
    x42       R26       1
    x42       R28       1
    x42       R29       1
    x42       R31       1
    x42       R32       1
    x42       R42       1
    x42       R46       1
    x42       R47       1
    x42       R49       1
    x42       R50       1
    x43       OBJ       1
    x43       R1        1
    x43       R4        1
    x43       R6        1
    x43       R8        1
    x43       R9        1
    x43       R11       1
    x43       R12       1
    x43       R14       1
    x43       R19       1
    x43       R22       1
    x43       R24       1
    x43       R26       1
    x43       R27       1
    x43       R29       1
    x43       R30       1
    x43       R32       1
    x43       R43       1
    x43       R45       1
    x43       R47       1
    x43       R48       1
    x43       R50       1
    x44       OBJ       1
    x44       R2        1
    x44       R5        1
    x44       R6        1
    x44       R7        1
    x44       R9        1
    x44       R10       1
    x44       R12       1
    x44       R13       1
    x44       R20       1
    x44       R23       1
    x44       R24       1
    x44       R25       1
    x44       R27       1
    x44       R28       1
    x44       R30       1
    x44       R31       1
    x44       R44       1
    x44       R45       1
    x44       R46       1
    x44       R48       1
    x44       R49       1
    x45       OBJ       1
    x45       R1        1
    x45       R2        1
    x45       R3        1
    x45       R6        1
    x45       R10       1
    x45       R11       1
    x45       R12       1
    x45       R15       1
    x45       R22       1
    x45       R23       1
    x45       R25       1
    x45       R26       1
    x45       R31       1
    x45       R32       1
    x45       R34       1
    x45       R35       1
    x45       R40       1
    x45       R41       1
    x45       R43       1
    x45       R44       1
    x45       R45       1
    x46       OBJ       1
    x46       R0        1
    x46       R2        1
    x46       R4        1
    x46       R7        1
    x46       R9        1
    x46       R11       1
    x46       R13       1
    x46       R16       1
    x46       R21       1
    x46       R23       1
    x46       R24       1
    x46       R26       1
    x46       R30       1
    x46       R32       1
    x46       R33       1
    x46       R35       1
    x46       R39       1
    x46       R41       1
    x46       R42       1
    x46       R44       1
    x46       R46       1
    x47       OBJ       1
    x47       R0        1
    x47       R1        1
    x47       R5        1
    x47       R8        1
    x47       R9        1
    x47       R10       1
    x47       R14       1
    x47       R17       1
    x47       R21       1
    x47       R22       1
    x47       R24       1
    x47       R25       1
    x47       R30       1
    x47       R31       1
    x47       R33       1
    x47       R34       1
    x47       R39       1
    x47       R40       1
    x47       R42       1
    x47       R43       1
    x47       R47       1
    x48       OBJ       1
    x48       R0        1
    x48       R4        1
    x48       R5        1
    x48       R6        1
    x48       R9        1
    x48       R13       1
    x48       R14       1
    x48       R15       1
    x48       R19       1
    x48       R20       1
    x48       R25       1
    x48       R26       1
    x48       R28       1
    x48       R29       1
    x48       R34       1
    x48       R35       1
    x48       R37       1
    x48       R38       1
    x48       R43       1
    x48       R44       1
    x48       R48       1
    x49       OBJ       1
    x49       R1        1
    x49       R3        1
    x49       R5        1
    x49       R7        1
    x49       R10       1
    x49       R12       1
    x49       R14       1
    x49       R16       1
    x49       R18       1
    x49       R20       1
    x49       R24       1
    x49       R26       1
    x49       R27       1
    x49       R29       1
    x49       R33       1
    x49       R35       1
    x49       R36       1
    x49       R38       1
    x49       R42       1
    x49       R44       1
    x49       R49       1
    x50       OBJ       1
    x50       R2        1
    x50       R3        1
    x50       R4        1
    x50       R8        1
    x50       R11       1
    x50       R12       1
    x50       R13       1
    x50       R17       1
    x50       R18       1
    x50       R19       1
    x50       R24       1
    x50       R25       1
    x50       R27       1
    x50       R28       1
    x50       R33       1
    x50       R34       1
    x50       R36       1
    x50       R37       1
    x50       R42       1
    x50       R43       1
    x50       R50       1
    x51       OBJ       1
    x51       R0        1
    x51       R3        1
    x51       R7        1
    x51       R8        1
    x51       R9        1
    x51       R12       1
    x51       R16       1
    x51       R17       1
    x51       R19       1
    x51       R20       1
    x51       R22       1
    x51       R23       1
    x51       R28       1
    x51       R29       1
    x51       R31       1
    x51       R32       1
    x51       R37       1
    x51       R38       1
    x51       R40       1
    x51       R41       1
    x51       R51       1
    x52       OBJ       1
    x52       R1        1
    x52       R4        1
    x52       R6        1
    x52       R8        1
    x52       R10       1
    x52       R13       1
    x52       R15       1
    x52       R17       1
    x52       R18       1
    x52       R20       1
    x52       R21       1
    x52       R23       1
    x52       R27       1
    x52       R29       1
    x52       R30       1
    x52       R32       1
    x52       R36       1
    x52       R38       1
    x52       R39       1
    x52       R41       1
    x52       R52       1
    x53       OBJ       1
    x53       R2        1
    x53       R5        1
    x53       R6        1
    x53       R7        1
    x53       R11       1
    x53       R14       1
    x53       R15       1
    x53       R16       1
    x53       R18       1
    x53       R19       1
    x53       R21       1
    x53       R22       1
    x53       R27       1
    x53       R28       1
    x53       R30       1
    x53       R31       1
    x53       R36       1
    x53       R37       1
    x53       R39       1
    x53       R40       1
    x53       R53       1
RHS
    RHS1      R0        1
    RHS1      R1        1
    RHS1      R2        1
    RHS1      R3        1
    RHS1      R4        1
    RHS1      R5        1
    RHS1      R6        1
    RHS1      R7        1
    RHS1      R8        1
    RHS1      R9        1
    RHS1      R10       1
    RHS1      R11       1
    RHS1      R12       1
    RHS1      R13       1
    RHS1      R14       1
    RHS1      R15       1
    RHS1      R16       1
    RHS1      R17       1
    RHS1      R18       1
    RHS1      R19       1
    RHS1      R20       1
    RHS1      R21       1
    RHS1      R22       1
    RHS1      R23       1
    RHS1      R24       1
    RHS1      R25       1
    RHS1      R26       1
    RHS1      R27       1
    RHS1      R28       1
    RHS1      R29       1
    RHS1      R30       1
    RHS1      R31       1
    RHS1      R32       1
    RHS1      R33       1
    RHS1      R34       1
    RHS1      R35       1
    RHS1      R36       1
    RHS1      R37       1
    RHS1      R38       1
    RHS1      R39       1
    RHS1      R40       1
    RHS1      R41       1
    RHS1      R42       1
    RHS1      R43       1
    RHS1      R44       1
    RHS1      R45       1
    RHS1      R46       1
    RHS1      R47       1
    RHS1      R48       1
    RHS1      R49       1
    RHS1      R50       1
    RHS1      R51       1
    RHS1      R52       1
    RHS1      R53       1
BOUNDS
 UP BND1      x0        1
 UP BND1      x1        1
 UP BND1      x2        1
 UP BND1      x3        1
 UP BND1      x4        1
 UP BND1      x5        1
 UP BND1      x6        1
 UP BND1      x7        1
 UP BND1      x8        1
 UP BND1      x9        1
 UP BND1      x10       1
 UP BND1      x11       1
 UP BND1      x12       1
 UP BND1      x13       1
 UP BND1      x14       1
 UP BND1      x15       1
 UP BND1      x16       1
 UP BND1      x17       1
 UP BND1      x18       1
 UP BND1      x19       1
 UP BND1      x20       1
 UP BND1      x21       1
 UP BND1      x22       1
 UP BND1      x23       1
 UP BND1      x24       1
 UP BND1      x25       1
 UP BND1      x26       1
 UP BND1      x27       1
 UP BND1      x28       1
 UP BND1      x29       1
 UP BND1      x30       1
 UP BND1      x31       1
 UP BND1      x32       1
 UP BND1      x33       1
 UP BND1      x34       1
 UP BND1      x35       1
 UP BND1      x36       1
 UP BND1      x37       1
 UP BND1      x38       1
 UP BND1      x39       1
 UP BND1      x40       1
 UP BND1      x41       1
 UP BND1      x42       1
 UP BND1      x43       1
 UP BND1      x44       1
 UP BND1      x45       1
 UP BND1      x46       1
 UP BND1      x47       1
 UP BND1      x48       1
 UP BND1      x49       1
 UP BND1      x50       1
 UP BND1      x51       1
 UP BND1      x52       1
 UP BND1      x53       1
ENDATA
